SAT
-10 62 44 57 22 -9 71 2 1 -53 40 70 -37 -77 -11 100 -28 -89 45 43 85 -74 5 -72 -98 90 80 97 -81 -52 -24 -23 -25 86 91 -99 30 66 -51 65 -95 60 -39 -49 -73 20 -87 -78 -79 -7 -13 21 4 -47 -46 -15 -26 96 -6 -16 -92 18 -94 -33 -68 50 -93 35 -59 -56 41 61 -67 12 69 63 58 -48 8 -3 84 32 82 -83 -75 -34 -36 54 27 -88 -38 17 31 -76 -42 -14 64 -55 -29 -19 0
